NAME : higgs-002-integer.-68474050.tour
COMMENT : Length = -68474050
COMMENT : Found by LKH [Keld Helsgaun] Sun Jul  4 22:07:21 2021
TYPE : TOUR
DIMENSION : 28
TOUR_SECTION
1
3
8
12
16
20
19
11
2
7
15
18
14
13
10
21
24
25
22
5
4
28
27
26
23
9
6
17
-1
EOF
